7494 4179
4112 9938
6724 5622
4705 7755
8652 176
9162 1641
3648 3158
5581 7355
6488 8566
6526 6954
1376 4385
588 544
4430 3904
3372 2387
3664 9359
3453 2659
4438 8762
3359 5199
1736 4459
3324 2578
1326 2849
4675 9568
5880 8859
8674 199
6246 6542
8192 6386
6606 7059
2313 1917
4013 9393
128 7679
6668 4294
3572 3881
4934 2646
7155 3872
5254 1809
1029 1115
3025 972
5790 3824
8043 7227
5850 7603
7655 3911
8205 3307
2475 7363
3487 130
5651 4986
8938 3325
6053 4502
3255 9985
8712 5093
5888 5347
